36 9526
12 19 30 11  2  3 
22 20 10 21  5  4 
13 15 31 32 28 29 
24 14 17 18 16  9  
8  7   6 23 33 34 
35 25 27 26  1 36

25 18  7 26 35 34 
15 17 27 16 32 33 
24 22  6  5  9  8 
13 23 20 19 21 28  
29 30 31 14  4  3 
 2 12 10 11 36  1

16 27 34 17  8  7 
24 26 18 25  5  6 
15 13 33 32 36 35 
22 14 11 10 12  1  
2  3   4 23 31 30 
29 21 19 20  9 28

21 10  3 20 29 30 
13 11 19 12 32 31 
22 24  4  5  1  2 
15 23 26 27 25 36  
35 34 33 14  6  7 
 8 16 18 17 28  9


